p cnf 10 50
6 -10 -9 0
-3 -4 -8 0
-6 -5 2 0
-3 10 6 0
-2 -3 -5 0
5 4 1 0
-4 2 -5 0
-4 -10 5 0
3 -5 -8 0
9 8 1 0
-10 5 2 0
4 -10 6 0
6 4 10 0
-8 10 -6 0
1 9 -6 0
7 5 -4 0
-8 -9 -3 0
8 -6 -1 0
3 -10 9 0
-1 -6 8 0
5 -6 -1 0
6 10 -4 0
-6 7 8 0
1 -10 -2 0
-2 -3 6 0
7 5 -2 0
1 10 3 0
-7 4 10 0
-6 -9 4 0
-1 8 -3 0
-6 -7 2 0
5 4 1 0
-1 7 -2 0
-9 -5 3 0
6 4 -2 0
-8 1 -6 0
-4 3 -5 0
-10 8 2 0
7 1 3 0
2 9 8 0
3 2 -9 0
2 -5 -1 0
7 -3 -10 0
8 1 6 0
-10 9 3 0
-6 -1 -2 0
7 6 -4 0
6 -1 -5 0
-10 -3 5 0
-3 -6 1 0